MA-Pb-I                                 
1.0
        6.5403499603         0.0000000000         0.0000000000
        0.0016044121         6.4779193799         0.0000000000
        0.1453224865        -0.0003802503         6.6274619373
    C    N    H   Pb    I
    1    1    6    1    3
Direct
     0.408136040         0.499727309         0.486978441
     0.630317032         0.499817133         0.525489330
     0.385478377         0.499216884         0.323228061
     0.339852333         0.639022589         0.555029869
     0.339889318         0.360864401         0.555855811
     0.702346325         0.630615950         0.464895189
     0.702385545         0.368733466         0.465442389
     0.662110507         0.500167191         0.679955602
     0.875839472         0.000123354         0.981088161
     0.877429426         0.999704003         0.452906549
     0.878349781         0.500528038         0.997754753
     0.413644731         0.000662193         0.938509941
