MA-Pb-I                                 
1.0
        6.0372462273         0.0000000000         0.0000000000
        0.0014809958         5.9796178891         0.0000000000
        0.1341438345        -0.0003510003         6.1176572096
    C    N    H   Pb    I
    1    1    6    1    3
Direct
     0.385711640         0.499857157         0.446470410
     0.599961400         0.499968410         0.558527946
     0.417921871         0.499695480         0.268994093
     0.292398900         0.650845408         0.494059414
     0.292498112         0.348937631         0.494303435
     0.694697797         0.641199112         0.517590165
     0.694770873         0.358673871         0.517789781
     0.581986666         0.500111103         0.727793992
     0.962553918         0.999981880         0.975970924
     0.926944792         0.999920011         0.474776030
     0.912083089         0.499988198         0.040269352
     0.454249799         0.000004228         0.910588562
