MA-Pb-I                                 
1.0
        6.1630225182         0.0000000000         0.0000000000
        0.0015118499         6.1041935002         0.0000000000
        0.1369385001        -0.0003583128         6.2451085107
    C    N    H   Pb    I
    1    1    6    1    3
Direct
     0.389030546         0.499726295         0.454007268
     0.605163753         0.499879360         0.552389681
     0.410926729         0.499566853         0.278904736
     0.300296158         0.647595286         0.505566359
     0.300501853         0.351857781         0.505791783
     0.695631444         0.638353527         0.507838249
     0.695839345         0.361499608         0.507782280
     0.596948862         0.499795854         0.718952894
     0.952561438         0.999938369         0.974755764
     0.919190466         0.999955475         0.473014683
     0.906268418         0.499990046         0.031290017
     0.443419784         0.001024047         0.916840315
