CuZnSnS (CZTS)                          
   1.00000000000000     
     5.3595718153120693   -0.0010294367218927   -0.0025128440772329
     0.0017592191906711    5.3597749463604387   -0.0017372917579854
    -2.6773456915404719   -2.6761812584559252    5.4178067934222103
   Cu   Zn   Sn   S 
     2     1     1     4
Direct
  0.9982304099999979  0.9982477100000011  0.0002051600000001
  0.2481739899999980  0.7481627599999996  0.4999720599999975
  0.7481827399999972  0.2481094899999974  0.4999292800000035
  0.4980734700000014  0.4980555400000028  0.9998174099999986
  0.8966893176602085  0.3682297906937079  0.2596934092643549
  0.6282958193062843  0.6369852683958616  0.7402257107356465
  0.1084267014293656  0.0996156923397918  0.7402745107356482
  0.3594884616041369  0.8878659685706369  0.2596791192643521
 
  0.00000000E+00  0.00000000E+00  0.00000000E+00
  0.00000000E+00  0.00000000E+00  0.00000000E+00
  0.00000000E+00  0.00000000E+00  0.00000000E+00
  0.00000000E+00  0.00000000E+00  0.00000000E+00
  0.00000000E+00  0.00000000E+00  0.00000000E+00
  0.00000000E+00  0.00000000E+00  0.00000000E+00
  0.00000000E+00  0.00000000E+00  0.00000000E+00
  0.00000000E+00  0.00000000E+00  0.00000000E+00
