Cu2ZnSnS4                               
   5.50143000000000     
     1.0184367422034666    0.0000000733198616    0.0000000000000000
    -0.0000000733198616    1.0184367422034666   -0.0000000000000001
     0.5092183344418025    0.5092184077616648    1.0175329487719813
   Cu   Zn   Sn   Se
     2     1     1     4
Direct
  0.0000000000000000  0.0000000000000000  0.0000000000000000
  0.7500000000000000  0.2500000000000000  0.5000000000000000
  0.5000000000000000  0.5000000000000000  0.0000000000000000
  0.2500000000000000  0.7500000000000000  0.5000000000000000
  0.1096009100553346  0.1423107773806365  0.2381522849518163
  0.6522468049928349  0.6195369376675188  0.2381522849518163
  0.8576892226193635  0.3477531950071651  0.7618477150481766
  0.3804630623324883  0.8903990899446654  0.7618477150481766
 
  0.00000000E+00  0.00000000E+00  0.00000000E+00
  0.00000000E+00  0.00000000E+00  0.00000000E+00
  0.00000000E+00  0.00000000E+00  0.00000000E+00
  0.00000000E+00  0.00000000E+00  0.00000000E+00
  0.00000000E+00  0.00000000E+00  0.00000000E+00
  0.00000000E+00  0.00000000E+00  0.00000000E+00
  0.00000000E+00  0.00000000E+00  0.00000000E+00
  0.00000000E+00  0.00000000E+00  0.00000000E+00
