CuZnSnS (CZTS)                          
   1.01000000000000     
     5.3597784182196069   -0.0010224558163051   -0.0025613752182262
     0.0016606618188927    5.3599561344019300   -0.0018265379249590
    -2.6774488499056184   -2.6763655685342340    5.4174838517678490
   Cu   Zn   Sn   S 
     2     1     1     4
Direct
  0.9982304099999979  0.9982477100000011  0.0002051600000001
  0.2481739899999980  0.7481627599999996  0.4999720599999975
  0.7481827399999972  0.2481094899999974  0.4999292800000035
  0.4980734700000014  0.4980555400000028  0.9998174099999986
  0.8957635987260683  0.3685730935934057  0.2591642586596292
  0.6279525164065861  0.6365887000664470  0.7407548613403722
  0.1092991549337894  0.1005414112739319  0.7408036613403740
  0.3598850299335510  0.8869935150662129  0.2591499686596263
 
  0.00000000E+00  0.00000000E+00  0.00000000E+00
  0.00000000E+00  0.00000000E+00  0.00000000E+00
  0.00000000E+00  0.00000000E+00  0.00000000E+00
  0.00000000E+00  0.00000000E+00  0.00000000E+00
  0.00000000E+00  0.00000000E+00  0.00000000E+00
  0.00000000E+00  0.00000000E+00  0.00000000E+00
  0.00000000E+00  0.00000000E+00  0.00000000E+00
  0.00000000E+00  0.00000000E+00  0.00000000E+00
