 ADDGRID = .TRUE.
 ALGO  = N          (Elect. algorithm: 38/48)
 EDIFF  = 1.0e-08 
 EDIFFG = -1.0e-02    (Ionic convergence)
 ENMAX = 700 eV    (Plane-wave cutoff) 
 GGA   =  PS       (PBE exchange-correlation)
 !IALGO = 48
 IBRION = 2     (Ions: 0-MD, 1-Quasi-New, 2-CG)
 ICORELEVEL = 1
 INIWAV = 1        (Random initial wavefunction)
 ISIF = 3
 ISMEAR = 0     (Gaussian smearing, Metals:1, MP)
 ISTART = 1        (Read existing wavefunction) 
 ISYM = 0    (Symmetry: Use all, 0: none) 
 KPAR = 8
 LCHARG = .FALSE.
 LPLANE = .TRUE.   (Real space distribution)
 LREAL = Auto  (Projection operators: automatic)
 LWAVE  = .FALSE.
 NBLOCK = 1     (Update XDATCAR/DOSCAR every X steps) 
 NCORE = 24
 NELM  = 250       (Max number of SCF steps)   
 NPAR = 1        (Max is no. nodes)
 NSW  = 1
 NWRITE = 2        (Medium-level output information)   
 POTIM = 0.2
 PREC  = Accurate  (Precision level)
 SIGMA = 0.001  (Smearing in eV, Metals:0.2)
