 ADDGRID = .TRUE.
 ALGO  = N          (Elect. algorithm: 38/48)
 EDIFF = 1.0e-06 
 EDIFFG = -1.0e-03    (Ionic convergence)
 ENMAX = 700 eV    (Plane-wave cutoff) 
 GGA   =  PS       (PBE exchange-correlation)
 IBRION = 1     (Ions: 0-MD, 1-Quasi-New, 2-CG)
 ICORELEVEL = 1
 INIWAV = 1        (Random initial wavefunction)
 ISIF = 3
 ISMEAR = 0     (Gaussian smearing, Metals:1, MP)
 ISTART = 1        (Read existing wavefunction) 
 ISYM = 2      (Symmetry: Use all, 0: none) 
 KPAR = 8
 LCHARG = .FALSE.
 LPLANE = .TRUE.   (Real space distribution)
 LREAL = Auto  (Projection operators: automatic)
 LWAVE  = .FALSE.
 NBLOCK = 1     (Update XDATCAR/DOSCAR every X steps) 
 NCORE  = 24        (Max is no. nodes)
 NELM  = 250       (Max number of SCF steps)   
 NSW = 15
 NWRITE = 2        (Medium-level output information)   
 POTIM = 0.15
 PREC  = Accurate  (Precision level)
 SIGMA = 0.001  (Smearing in eV, Metals:0.2)
 SYSTEM = Orto 
