 ADDGRID = .TRUE.
 ALGO  = N          (Elect. algorithm: 38/48)
 EDIFF  = 1.0e-08 
 EDIFFG = -1.0e-02    (Ionic convergence)
 ENMAX = 700 eV    (Plane-wave cutoff) 
 GGA   =  PS       (PBE exchange-correlation)
 IBRION = 2     (Ions: 0-MD, 1-Quasi-New, 2-CG)
 ICORELEVEL = 1
 INIWAV = 1        (Random initial wavefunction)
 ISIF   = 2
 ISMEAR = 0     (Gaussian smearing, Metals:1, MP)
 ISTART = 1        (Read existing wavefunction) 
 ISYM   = 2      (Symmetry: Use all, 0: none) 
 !KPAR   = 4
 LCHARGE = .FALSE.
 LPLANE = .TRUE.   (Real space distribution)
 LREAL = .FALSE.  (Projection operators: automatic)
 LWAVE  = .FALSE.
 NBLOCK = 1     (Update XDATCAR/DOSCAR every X steps) 
 NELM  = 45      (Max number of SCF steps)   
 NCORE   = 24        (Max is no. nodes)
 NSW    = 1
 NWRITE = 2        (Medium-level output information)   
 POTIM  = 0.2
 PREC  = Accurate  (Precision level)
 SIGMA  = 0.001  (Smearing in eV, Metals:0.2)
SYSTEM = Mapi1e3 
