C3 H8 N2 O6 Zn                          
   1.00000000000000     
     8.9918909061648158    0.0000000000000000    0.0000000000000000
     0.0000000000000000    7.5809833674618616    0.0000000000000000
     0.0000000000000000    0.0000000000000000   11.5746311223624474
   O    C    H    N    Zn
    24    12    32     8     4
Direct
  0.3236879094152342  0.4120514418911458  0.1791363919645596
  0.6763120905847653  0.5879485581088543  0.6791364069645633
  0.8236879094152347  0.0879485581088549  0.1791363919645596
  0.1763120905847655  0.9120514418911457  0.6791364069645633
  0.1285224107982783  0.2316381798157507  0.1756587769100940
  0.8714775592017198  0.7683618201842498  0.6756587619100948
  0.6285224407982802  0.2683618201842499  0.1756587769100940
  0.3714775892017207  0.7316381798157502  0.6756587619100948
  0.4187601879551402  0.7260758011768227  0.0449514877333357
  0.5812398420448545  0.2739241988231784  0.5449514797333436
  0.9187601579551455  0.7739241988231773  0.0449514877333357
  0.0812398120448593  0.2260758011768213  0.5449514797333436
  0.2246674093308971  0.9099411118296157  0.0360953675776010
  0.7753326206690981  0.0900588881703838  0.5360953855775960
  0.7246673793309019  0.5900588881703843  0.0360953675776010
  0.2753325906691025  0.4099411118296165  0.5360953855775960
  0.5586396639957850  0.6394565518705708  0.2666672252704774
  0.4413603360042127  0.3605434481294293  0.7666672252704760
  0.0586396639957868  0.8605434481294292  0.2666672252704774
  0.9413603360042150  0.1394565518705708  0.7666672252704760
  0.5159466252539537  0.6364847034794642  0.4564963826233688
  0.4840533747460540  0.3635152965205343  0.9564964126233728
  0.0159466252539462  0.8635152965205358  0.4564963826233688
  0.9840533747460534  0.1364847034794650  0.9564964126233728
  0.2608772949268154  0.2713575320673972  0.1466271372416185
  0.7391227050731948  0.7286424679325951  0.6466271522416149
  0.7608772949268052  0.2286424679326022  0.1466271372416185
  0.2391227050731850  0.7713575320674049  0.6466271522416149
  0.2925236945371805  0.7780764976964488  0.0789348406232238
  0.7074763054628186  0.2219235023035532  0.5789348256232264
  0.7925236945371814  0.7219235023035512  0.0789348406232238
  0.2074763054628202  0.2780764976964473  0.5789348256232264
  0.5277746707326200  0.5590866235120174  0.3600736277339300
  0.4722253292673813  0.4409133764879847  0.8600736277339298
  0.0277746707326190  0.9409133764879826  0.3600736277339300
  0.9722253292673800  0.0590866235120156  0.8600736277339298
  0.3225434560483250  0.1786625333709694  0.0899510668832827
  0.6774565729516735  0.8213374666290305  0.5899510448832817
  0.8225434270483265  0.3213374666290304  0.0899510668832826
  0.1774565439516755  0.6786625333709695  0.5899510448832817
  0.2379615169153040  0.7044104842536358  0.1499816686920909
  0.7620384530846913  0.2955895157463652  0.6499816546920967
  0.7379615469153087  0.7955895157463642  0.1499816686920909
  0.2620384830846964  0.2044104842536350  0.6499816546920967
  0.5097763719183169  0.4144287062745474  0.3559656573031442
  0.4902236280816841  0.5855713227254514  0.8559656573031433
  0.0097763719183160  0.0855712937254525  0.3559656573031442
  0.9902236280816831  0.9144286772745486  0.8559656573031433
  0.0976332750695885  0.6375037915388793  0.3077010731739924
  0.9023666959304120  0.3624962084611199  0.8077010731739928
  0.5976333040695880  0.8624962084611207  0.3077010731739924
  0.4023667249304106  0.1375037915388805  0.8077010731739928
  0.1026408970914912  0.4149368581862287  0.2773804486102265
  0.8973590959085133  0.5850631418137711  0.7773804486102266
  0.6026409040914867  0.0850631418137712  0.2773804486102265
  0.3973590959085124  0.9149368581862289  0.7773804486102266
  0.1822565895580967  0.4894537887378524  0.4020945367406824
  0.8177433804419024  0.5105462112621472  0.9020945667406843
  0.6822566195580976  0.0105462112621481  0.4020945367406824
  0.3177434104419034  0.9894537887378528  0.9020945667406843
  0.9409550164975006  0.6097018931385813  0.4450778770889026
  0.0590449685025027  0.3902981068614194  0.9450778770889021
  0.4409550164974925  0.8902981068614187  0.4450778770889026
  0.5590449835024994  0.1097018931385808  0.9450778770889021
  0.9686787317269248  0.3929299454304811  0.4603230643217153
  0.0313212602730749  0.6070700545695205  0.9603230643217167
  0.4686787317269235  0.1070700545695191  0.4603230643217153
  0.5313212682730752  0.8929299454304795  0.9603230643217167
  0.0938292156690367  0.5093569166037318  0.3436241733297238
  0.9061708063309636  0.4906430833962597  0.8436241733297221
  0.5938291936690364  0.9906430833962682  0.3436241733297238
  0.4061707763309702  0.0093569166037393  0.8436241733297221
  0.9521422303390565  0.4925457398236655  0.4002945473568209
  0.0478577396609419  0.5074542601763348  0.9002945473568205
  0.4521422603390586  0.0074542601763345  0.4002945473568209
  0.5478577696609435  0.9925457398236652  0.9002945473568205
  0.5229544309176144  0.4990921190570489  0.1102946198212136
  0.4770455690823844  0.5009078809429516  0.6102945968212095
  0.0229544309176154  0.0009078809429508  0.1102946198212136
  0.9770455690823856  0.9990921190570484  0.6102945968212095
 
  0.00000000E+00  0.00000000E+00  0.00000000E+00
  0.00000000E+00  0.00000000E+00  0.00000000E+00
  0.00000000E+00  0.00000000E+00  0.00000000E+00
  0.00000000E+00  0.00000000E+00  0.00000000E+00
  0.00000000E+00  0.00000000E+00  0.00000000E+00
  0.00000000E+00  0.00000000E+00  0.00000000E+00
  0.00000000E+00  0.00000000E+00  0.00000000E+00
  0.00000000E+00  0.00000000E+00  0.00000000E+00
  0.00000000E+00  0.00000000E+00  0.00000000E+00
  0.00000000E+00  0.00000000E+00  0.00000000E+00
  0.00000000E+00  0.00000000E+00  0.00000000E+00
  0.00000000E+00  0.00000000E+00  0.00000000E+00
  0.00000000E+00  0.00000000E+00  0.00000000E+00
  0.00000000E+00  0.00000000E+00  0.00000000E+00
  0.00000000E+00  0.00000000E+00  0.00000000E+00
  0.00000000E+00  0.00000000E+00  0.00000000E+00
  0.00000000E+00  0.00000000E+00  0.00000000E+00
  0.00000000E+00  0.00000000E+00  0.00000000E+00
  0.00000000E+00  0.00000000E+00  0.00000000E+00
  0.00000000E+00  0.00000000E+00  0.00000000E+00
  0.00000000E+00  0.00000000E+00  0.00000000E+00
  0.00000000E+00  0.00000000E+00  0.00000000E+00
  0.00000000E+00  0.00000000E+00  0.00000000E+00
  0.00000000E+00  0.00000000E+00  0.00000000E+00
  0.00000000E+00  0.00000000E+00  0.00000000E+00
  0.00000000E+00  0.00000000E+00  0.00000000E+00
  0.00000000E+00  0.00000000E+00  0.00000000E+00
  0.00000000E+00  0.00000000E+00  0.00000000E+00
  0.00000000E+00  0.00000000E+00  0.00000000E+00
  0.00000000E+00  0.00000000E+00  0.00000000E+00
  0.00000000E+00  0.00000000E+00  0.00000000E+00
  0.00000000E+00  0.00000000E+00  0.00000000E+00
  0.00000000E+00  0.00000000E+00  0.00000000E+00
  0.00000000E+00  0.00000000E+00  0.00000000E+00
  0.00000000E+00  0.00000000E+00  0.00000000E+00
  0.00000000E+00  0.00000000E+00  0.00000000E+00
  0.00000000E+00  0.00000000E+00  0.00000000E+00
  0.00000000E+00  0.00000000E+00  0.00000000E+00
  0.00000000E+00  0.00000000E+00  0.00000000E+00
  0.00000000E+00  0.00000000E+00  0.00000000E+00
  0.00000000E+00  0.00000000E+00  0.00000000E+00
  0.00000000E+00  0.00000000E+00  0.00000000E+00
  0.00000000E+00  0.00000000E+00  0.00000000E+00
  0.00000000E+00  0.00000000E+00  0.00000000E+00
  0.00000000E+00  0.00000000E+00  0.00000000E+00
  0.00000000E+00  0.00000000E+00  0.00000000E+00
  0.00000000E+00  0.00000000E+00  0.00000000E+00
  0.00000000E+00  0.00000000E+00  0.00000000E+00
  0.00000000E+00  0.00000000E+00  0.00000000E+00
  0.00000000E+00  0.00000000E+00  0.00000000E+00
  0.00000000E+00  0.00000000E+00  0.00000000E+00
  0.00000000E+00  0.00000000E+00  0.00000000E+00
  0.00000000E+00  0.00000000E+00  0.00000000E+00
  0.00000000E+00  0.00000000E+00  0.00000000E+00
  0.00000000E+00  0.00000000E+00  0.00000000E+00
  0.00000000E+00  0.00000000E+00  0.00000000E+00
  0.00000000E+00  0.00000000E+00  0.00000000E+00
  0.00000000E+00  0.00000000E+00  0.00000000E+00
  0.00000000E+00  0.00000000E+00  0.00000000E+00
  0.00000000E+00  0.00000000E+00  0.00000000E+00
  0.00000000E+00  0.00000000E+00  0.00000000E+00
  0.00000000E+00  0.00000000E+00  0.00000000E+00
  0.00000000E+00  0.00000000E+00  0.00000000E+00
  0.00000000E+00  0.00000000E+00  0.00000000E+00
  0.00000000E+00  0.00000000E+00  0.00000000E+00
  0.00000000E+00  0.00000000E+00  0.00000000E+00
  0.00000000E+00  0.00000000E+00  0.00000000E+00
  0.00000000E+00  0.00000000E+00  0.00000000E+00
  0.00000000E+00  0.00000000E+00  0.00000000E+00
  0.00000000E+00  0.00000000E+00  0.00000000E+00
  0.00000000E+00  0.00000000E+00  0.00000000E+00
  0.00000000E+00  0.00000000E+00  0.00000000E+00
  0.00000000E+00  0.00000000E+00  0.00000000E+00
  0.00000000E+00  0.00000000E+00  0.00000000E+00
  0.00000000E+00  0.00000000E+00  0.00000000E+00
  0.00000000E+00  0.00000000E+00  0.00000000E+00
  0.00000000E+00  0.00000000E+00  0.00000000E+00
  0.00000000E+00  0.00000000E+00  0.00000000E+00
  0.00000000E+00  0.00000000E+00  0.00000000E+00
  0.00000000E+00  0.00000000E+00  0.00000000E+00
