C3 H8 Zn N2 O6                          
   1.0000000000000000     
     7.8798845836560538    0.0000000000000000    0.0000000000000000
     0.0000000000000000   13.7141962588923096    0.0000000000000000
     0.0000000000000000    0.0000000000000000    7.1610029806218218
   O    C    H    N    Zn
    24    12    32     8     4
Direct
  0.1054879784571224  0.2276043854173761  0.6115978496730325
  0.3945120145428752  0.7723956295826191  0.1115978496730405
  0.8945120145428682  0.7276043704173809  0.8884021503269675
  0.6054879854571318  0.2723956295826229  0.3884021503269606
  0.9149471160242515  0.1585645253569176  0.4272397505279089
  0.5850528839757485  0.8414354746430870  0.9272397505279096
  0.0850529059757335  0.6585645253569130  0.0727602494720921
  0.4149470870242556  0.3414354746430813  0.5727602494720904
  0.3090115941851401  0.2114092878932589  0.8972089708240828
  0.1909884058148579  0.7885906971067379  0.3972089708240852
  0.6909884058148594  0.7114093028932621  0.6027910291759172
  0.8090115941851406  0.2885906971067431  0.1027910291759148
  0.5074090972497041  0.1409333505365841  0.0747257229061766
  0.9925909027502959  0.8590666344634136  0.5747257229061842
  0.4925909027502950  0.6409333655365864  0.4252742770938234
  0.0074090972497055  0.3590666344634191  0.9252742770938158
  0.1024335057010266  0.4562167970254793  0.6202776670991051
  0.3975664942989724  0.5437831739745227  0.1202776670991087
  0.8975664642989810  0.9562168260254773  0.8797223329008949
  0.6024335357010190  0.0437832029745209  0.3797223329008892
  0.1227838450847201  0.5750533917515916  0.4097328592910638
  0.3772161699152790  0.4249466082484039  0.9097328892910571
  0.8772161699152762  0.0750533917515939  0.0902671407089331
  0.6227838300847238  0.9249466082484084  0.5902671107089429
  0.9771385510947398  0.2323402745556967  0.5066481551879322
  0.5228614489052602  0.7676596964443062  0.0066481851879114
  0.0228614229052671  0.7323403035556938  0.9933518448120749
  0.4771385810947323  0.2676597254443127  0.4933518148120828
  0.4448642014752188  0.2141264740644561  0.9925409721228134
  0.0551357985247809  0.7858734969355424  0.4925409721228214
  0.5551357985247801  0.7141265030644576  0.5074590278771866
  0.9448642014752198  0.2858735259355437  0.0074590278771785
  0.1874463355824147  0.5072963348338314  0.5055117521503697
  0.3125536494175878  0.4927036651661671  0.0055117521503653
  0.8125536494175972  0.0072963348338333  0.9944882478496303
  0.6874463505824028  0.9927036651661686  0.4944882478496382
  0.9162465176874489  0.3047557207521754  0.4828381631770282
  0.5837534823125511  0.6952442792478304  0.9828381631770436
  0.0837534753125558  0.8047557207521696  0.0171618368229661
  0.4162465176874480  0.1952442792478271  0.5171618368229564
  0.5107942455973719  0.2855169275333056  0.0039955445284343
  0.9892057544026281  0.7144830424666883  0.5039955445284375
  0.4892057544026185  0.7855169575333117  0.4960044554715670
  0.0107942455973736  0.2144830724667006  0.9960044554715625
  0.3246622358608248  0.4908838719456066  0.4898838488873891
  0.1753377641391740  0.5091161280543951  0.9898838488873993
  0.6753377641391722  0.9908838719456049  0.0101161511126108
  0.8246622358608278  0.0091161280543933  0.5101161511126007
  0.0647327530897924  0.0218638248293192  0.7776874313350988
  0.4352672539102054  0.9781361791706880  0.2776874313351032
  0.9352672239102119  0.5218638208293120  0.7223125686649012
  0.5647327760897881  0.4781361791706785  0.2223125686648975
  0.1957923228161697  0.0377697379928983  0.5857949016982229
  0.3042076921838289  0.9622302770071077  0.0857949016982242
  0.8042076921838276  0.5377697229928923  0.9142050983017771
  0.6957923078161724  0.4622302770071104  0.4142050983017745
  0.2296076606193459  0.1040178125330188  0.7903647337748212
  0.2703923533806555  0.8959822094669824  0.2903647337748116
  0.7703923533806550  0.6040177905330176  0.7096352662251788
  0.7296076466193450  0.3959821794669791  0.2096352662251865
  0.4080482509860248  0.9578603649797179  0.7615352929359867
  0.0919517490139754  0.0421396400202754  0.2615352929359918
  0.5919517490139761  0.4578603649797263  0.7384647070640133
  0.9080482509860239  0.5421396350202821  0.2384647070640160
  0.2297285549882703  0.8957614383603317  0.7785486485521049
  0.2702714450117283  0.1042385386396679  0.2785486485521152
  0.7702714450117160  0.3957614683603351  0.7214513514478951
  0.7297285549882840  0.6042385616396683  0.2214513514478859
  0.1904869481645046  0.0362279245622989  0.7345833925267080
  0.3095130518354943  0.9637720604377013  0.2345833925267081
  0.8095130228354942  0.5362279395622987  0.7654166074732920
  0.6904869771645058  0.4637720604377034  0.2654166074732938
  0.2879540224030442  0.9594157044463582  0.8198244669595889
  0.2120459775969550  0.0405842885536504  0.3198244669595873
  0.7120459775969420  0.4594157044463507  0.6801755330404111
  0.7879540224030580  0.5405842955536418  0.1801755330404144
  0.2174690733010569  0.3372387089626306  0.7537582359326322
  0.2825309266989363  0.6627612910373613  0.2537582359326285
  0.7825309266989390  0.8372387089626387  0.7462417640673678
  0.7174690733010610  0.1627612910373636  0.2462417640673696

  0.00000000E+00  0.00000000E+00  0.00000000E+00
  0.00000000E+00  0.00000000E+00  0.00000000E+00
  0.00000000E+00  0.00000000E+00  0.00000000E+00
  0.00000000E+00  0.00000000E+00  0.00000000E+00
  0.00000000E+00  0.00000000E+00  0.00000000E+00
  0.00000000E+00  0.00000000E+00  0.00000000E+00
  0.00000000E+00  0.00000000E+00  0.00000000E+00
  0.00000000E+00  0.00000000E+00  0.00000000E+00
  0.00000000E+00  0.00000000E+00  0.00000000E+00
  0.00000000E+00  0.00000000E+00  0.00000000E+00
  0.00000000E+00  0.00000000E+00  0.00000000E+00
  0.00000000E+00  0.00000000E+00  0.00000000E+00
  0.00000000E+00  0.00000000E+00  0.00000000E+00
  0.00000000E+00  0.00000000E+00  0.00000000E+00
  0.00000000E+00  0.00000000E+00  0.00000000E+00
  0.00000000E+00  0.00000000E+00  0.00000000E+00
  0.00000000E+00  0.00000000E+00  0.00000000E+00
  0.00000000E+00  0.00000000E+00  0.00000000E+00
  0.00000000E+00  0.00000000E+00  0.00000000E+00
  0.00000000E+00  0.00000000E+00  0.00000000E+00
  0.00000000E+00  0.00000000E+00  0.00000000E+00
  0.00000000E+00  0.00000000E+00  0.00000000E+00
  0.00000000E+00  0.00000000E+00  0.00000000E+00
  0.00000000E+00  0.00000000E+00  0.00000000E+00
  0.00000000E+00  0.00000000E+00  0.00000000E+00
  0.00000000E+00  0.00000000E+00  0.00000000E+00
  0.00000000E+00  0.00000000E+00  0.00000000E+00
  0.00000000E+00  0.00000000E+00  0.00000000E+00
  0.00000000E+00  0.00000000E+00  0.00000000E+00
  0.00000000E+00  0.00000000E+00  0.00000000E+00
  0.00000000E+00  0.00000000E+00  0.00000000E+00
  0.00000000E+00  0.00000000E+00  0.00000000E+00
  0.00000000E+00  0.00000000E+00  0.00000000E+00
  0.00000000E+00  0.00000000E+00  0.00000000E+00
  0.00000000E+00  0.00000000E+00  0.00000000E+00
  0.00000000E+00  0.00000000E+00  0.00000000E+00
  0.00000000E+00  0.00000000E+00  0.00000000E+00
  0.00000000E+00  0.00000000E+00  0.00000000E+00
  0.00000000E+00  0.00000000E+00  0.00000000E+00
  0.00000000E+00  0.00000000E+00  0.00000000E+00
  0.00000000E+00  0.00000000E+00  0.00000000E+00
  0.00000000E+00  0.00000000E+00  0.00000000E+00
  0.00000000E+00  0.00000000E+00  0.00000000E+00
  0.00000000E+00  0.00000000E+00  0.00000000E+00
  0.00000000E+00  0.00000000E+00  0.00000000E+00
  0.00000000E+00  0.00000000E+00  0.00000000E+00
  0.00000000E+00  0.00000000E+00  0.00000000E+00
  0.00000000E+00  0.00000000E+00  0.00000000E+00
  0.00000000E+00  0.00000000E+00  0.00000000E+00
  0.00000000E+00  0.00000000E+00  0.00000000E+00
  0.00000000E+00  0.00000000E+00  0.00000000E+00
  0.00000000E+00  0.00000000E+00  0.00000000E+00
  0.00000000E+00  0.00000000E+00  0.00000000E+00
  0.00000000E+00  0.00000000E+00  0.00000000E+00
  0.00000000E+00  0.00000000E+00  0.00000000E+00
  0.00000000E+00  0.00000000E+00  0.00000000E+00
  0.00000000E+00  0.00000000E+00  0.00000000E+00
  0.00000000E+00  0.00000000E+00  0.00000000E+00
  0.00000000E+00  0.00000000E+00  0.00000000E+00
  0.00000000E+00  0.00000000E+00  0.00000000E+00
  0.00000000E+00  0.00000000E+00  0.00000000E+00
  0.00000000E+00  0.00000000E+00  0.00000000E+00
  0.00000000E+00  0.00000000E+00  0.00000000E+00
  0.00000000E+00  0.00000000E+00  0.00000000E+00
  0.00000000E+00  0.00000000E+00  0.00000000E+00
  0.00000000E+00  0.00000000E+00  0.00000000E+00
  0.00000000E+00  0.00000000E+00  0.00000000E+00
  0.00000000E+00  0.00000000E+00  0.00000000E+00
  0.00000000E+00  0.00000000E+00  0.00000000E+00
  0.00000000E+00  0.00000000E+00  0.00000000E+00
  0.00000000E+00  0.00000000E+00  0.00000000E+00
  0.00000000E+00  0.00000000E+00  0.00000000E+00
  0.00000000E+00  0.00000000E+00  0.00000000E+00
  0.00000000E+00  0.00000000E+00  0.00000000E+00
  0.00000000E+00  0.00000000E+00  0.00000000E+00
  0.00000000E+00  0.00000000E+00  0.00000000E+00
  0.00000000E+00  0.00000000E+00  0.00000000E+00
  0.00000000E+00  0.00000000E+00  0.00000000E+00
  0.00000000E+00  0.00000000E+00  0.00000000E+00
  0.00000000E+00  0.00000000E+00  0.00000000E+00
