ISIF 4 calc                             
   1.00990231629874     
     8.6919648851176703    0.0027619846373345    0.0377531159176861
     0.0029972956452136    8.7108487519015032    0.0269626112216975
     0.0482581761017001    0.0369568871986174   12.8457108911759335
   C    N    H    Pb   I 
     4     4    24     4    12
Direct
  0.7783787019996395  0.2488573886695989  0.2497459310705690
  0.2808305027580839  0.7944913346400219  0.2494223358498742
  0.7939946993202438  0.2813700482229987  0.7486982831049489
  0.2490070981286062  0.7789246458445149  0.7500413025434433
  0.6769275748736453  0.3569907333563834  0.1955165700939902
  0.1789586450259273  0.6844110323330390  0.1984036866900311
  0.6852330325825836  0.1778195676523323  0.6979345447973639
  0.3563328984165330  0.6762054320901142  0.6958557417682221
  0.3994697708610255  0.7691136569196064  0.2276222327155186
  0.2662520278012489  0.7842205900408398  0.3334670676764629
  0.2510538611971757  0.9099433171461458  0.2235967270447438
  0.2033957735693878  0.5721745144128166  0.2196994686205801
  0.1902170543580241  0.6908701597271730  0.1186081705045335
  0.0641085108085229  0.7047243946743289  0.2159940546955323
  0.6866813937604689  0.3452605992198899  0.1159847258779245
  0.7029969466901236  0.4700510041587432  0.2128170211850498
  0.5621302147698732  0.3388056677872539  0.2146620404117315
  0.8969705120179182  0.2715674234398113  0.2263565300716037
  0.7472616060253776  0.1322588865764409  0.2283185087949417
  0.7649550400320584  0.2638473759177111  0.3334459390052385
  0.7040394959304080  0.0640570520617931  0.7182552937618819
  0.6954301679410263  0.1846532837595966  0.6180943499820761
  0.5720289959723285  0.2038900519020475  0.7167323003819602
  0.9105499564905339  0.2498288770874443  0.7255148433690766
  0.7803119655528805  0.2708585986152819  0.8327938844545785
  0.7701860079454593  0.3987294380750042  0.7239819638767638
  0.4699856299637017  0.7027662663163272  0.7117291722064100
  0.3428750366543756  0.6835351536866021  0.6163746865217034
  0.3385872826851911  0.5622006510955958  0.7164095313597868
  0.2713273912653251  0.8965725625153368  0.7250763690973938
  0.2655691826945010  0.7677938107720909  0.8336985408688047
  0.1317124268387047  0.7472740055483077  0.7301879514668690
  0.2595775202911088  0.2665103365172133  0.9888086761559592
  0.2674919284634449  0.2605135498605265  0.4888125702442313
  0.7798857764004120  0.7622685058277950  0.4895439693934790
  0.7611306527840360  0.7797002869415923  0.9895295265477196
  0.4536803325134324  0.5798186510669496  0.9951158907271140
  0.0739723158890576  0.9594137347521214  0.9976717788424240
  0.9582331219169178  0.4714361359429540  0.9988899167881957
  0.5796832914953570  0.0932060489075127  0.9897434239453576
  0.0933073933533724  0.5796969567959118  0.4900993005607181
  0.4713970047429588  0.9591673684693042  0.4997787117206557
  0.5803402403073650  0.4552489918710679  0.4951400572337645
  0.9595191424822459  0.0748851445229523  0.4967941385862071
  0.2745483398298536  0.2832103353062403  0.2399000672653034
  0.2833744487887657  0.2745227903261803  0.7398811971541992
  0.7549091094229297  0.7732541280040663  0.7416390940197994
  0.7731886403874503  0.7550735846220320  0.2416111739450950
 
  0.00000000E+00  0.00000000E+00  0.00000000E+00
  0.00000000E+00  0.00000000E+00  0.00000000E+00
  0.00000000E+00  0.00000000E+00  0.00000000E+00
  0.00000000E+00  0.00000000E+00  0.00000000E+00
  0.00000000E+00  0.00000000E+00  0.00000000E+00
  0.00000000E+00  0.00000000E+00  0.00000000E+00
  0.00000000E+00  0.00000000E+00  0.00000000E+00
  0.00000000E+00  0.00000000E+00  0.00000000E+00
  0.00000000E+00  0.00000000E+00  0.00000000E+00
  0.00000000E+00  0.00000000E+00  0.00000000E+00
  0.00000000E+00  0.00000000E+00  0.00000000E+00
  0.00000000E+00  0.00000000E+00  0.00000000E+00
  0.00000000E+00  0.00000000E+00  0.00000000E+00
  0.00000000E+00  0.00000000E+00  0.00000000E+00
  0.00000000E+00  0.00000000E+00  0.00000000E+00
  0.00000000E+00  0.00000000E+00  0.00000000E+00
  0.00000000E+00  0.00000000E+00  0.00000000E+00
  0.00000000E+00  0.00000000E+00  0.00000000E+00
  0.00000000E+00  0.00000000E+00  0.00000000E+00
  0.00000000E+00  0.00000000E+00  0.00000000E+00
  0.00000000E+00  0.00000000E+00  0.00000000E+00
  0.00000000E+00  0.00000000E+00  0.00000000E+00
  0.00000000E+00  0.00000000E+00  0.00000000E+00
  0.00000000E+00  0.00000000E+00  0.00000000E+00
  0.00000000E+00  0.00000000E+00  0.00000000E+00
  0.00000000E+00  0.00000000E+00  0.00000000E+00
  0.00000000E+00  0.00000000E+00  0.00000000E+00
  0.00000000E+00  0.00000000E+00  0.00000000E+00
  0.00000000E+00  0.00000000E+00  0.00000000E+00
  0.00000000E+00  0.00000000E+00  0.00000000E+00
  0.00000000E+00  0.00000000E+00  0.00000000E+00
  0.00000000E+00  0.00000000E+00  0.00000000E+00
  0.00000000E+00  0.00000000E+00  0.00000000E+00
  0.00000000E+00  0.00000000E+00  0.00000000E+00
  0.00000000E+00  0.00000000E+00  0.00000000E+00
  0.00000000E+00  0.00000000E+00  0.00000000E+00
  0.00000000E+00  0.00000000E+00  0.00000000E+00
  0.00000000E+00  0.00000000E+00  0.00000000E+00
  0.00000000E+00  0.00000000E+00  0.00000000E+00
  0.00000000E+00  0.00000000E+00  0.00000000E+00
  0.00000000E+00  0.00000000E+00  0.00000000E+00
  0.00000000E+00  0.00000000E+00  0.00000000E+00
  0.00000000E+00  0.00000000E+00  0.00000000E+00
  0.00000000E+00  0.00000000E+00  0.00000000E+00
  0.00000000E+00  0.00000000E+00  0.00000000E+00
  0.00000000E+00  0.00000000E+00  0.00000000E+00
  0.00000000E+00  0.00000000E+00  0.00000000E+00
  0.00000000E+00  0.00000000E+00  0.00000000E+00
