Cu2ZnSnS4                               
   5.55700000000000     
     1.0184367422034666    0.0000000733198616    0.0000000000000000
    -0.0000000733198616    1.0184367422034666   -0.0000000000000001
     0.5092183344418025    0.5092184077616648    1.0175329487719813
   Cu   Zn   Sn   Se
     2     1     1     4
Direct
  0.0000000000000000  0.0000000000000000 -0.0000000000000000
  0.7500000000000000  0.2500000000000000  0.5000000000000000
  0.5000000000000000  0.5000000000000000 -0.0000000000000000
  0.2500000000000000  0.7500000000000000  0.5000000000000000
  0.1098316448937040  0.1414386914199570  0.2386612349494143
  0.6515071201568817  0.6199000736306074  0.2386612349494143
  0.8585613085800431  0.3484928798431183  0.7613387650505856
  0.3800999263693997  0.8901683551062960  0.7613387650505856
 
  0.00000000E+00  0.00000000E+00  0.00000000E+00
  0.00000000E+00  0.00000000E+00  0.00000000E+00
  0.00000000E+00  0.00000000E+00  0.00000000E+00
  0.00000000E+00  0.00000000E+00  0.00000000E+00
  0.00000000E+00  0.00000000E+00  0.00000000E+00
  0.00000000E+00  0.00000000E+00  0.00000000E+00
  0.00000000E+00  0.00000000E+00  0.00000000E+00
  0.00000000E+00  0.00000000E+00  0.00000000E+00
