Cu2ZnSnS4                               
   5.61257000000000     
     1.0184367422034666    0.0000000733198616    0.0000000000000000
    -0.0000000733198616    1.0184367422034666   -0.0000000000000001
     0.5092183344418025    0.5092184077616648    1.0175329487719813
   Cu   Zn   Sn   Se
     2     1     1     4
Direct
  0.0000000000000000  0.0000000000000000  0.0000000000000000
  0.7500000000000000  0.2500000000000000  0.5000000000000000
  0.5000000000000000  0.5000000000000000  0.0000000000000000
  0.2500000000000000  0.7500000000000000  0.5000000000000000
  0.1100914116317284  0.1405546709457397  0.2391600901368207
  0.6507484982314509  0.6202852389174183  0.2391600901368207
  0.8594453290542603  0.3492515017685491  0.7608399098631793
  0.3797147610825888  0.8899085883682716  0.7608399098631793
 
  0.00000000E+00  0.00000000E+00  0.00000000E+00
  0.00000000E+00  0.00000000E+00  0.00000000E+00
  0.00000000E+00  0.00000000E+00  0.00000000E+00
  0.00000000E+00  0.00000000E+00  0.00000000E+00
  0.00000000E+00  0.00000000E+00  0.00000000E+00
  0.00000000E+00  0.00000000E+00  0.00000000E+00
  0.00000000E+00  0.00000000E+00  0.00000000E+00
  0.00000000E+00  0.00000000E+00  0.00000000E+00
