K Sr B H 
   1.0
    11.5603614354310995    0.3343899468292566    0.3141167453451845
     0.3385295604086316   11.5362166288118466    0.3225962791565675
     0.3511501064225987    0.3144898026983873   11.5360466640696959
   8   8  24  96
Direct
  0.0386676167883225  0.0390715640118486  0.0406439707017660
  0.5386676167883225  0.0390715640118486  0.0406439707017660
  0.0386676167883225  0.5390715640118485  0.0406439707017660
  0.5386676167883225  0.5390715640118485  0.0406439707017660
  0.0386676167883225  0.0390715640118486  0.5406439707017661
  0.5386676167883225  0.0390715640118486  0.5406439707017661
  0.0386676167883225  0.5390715640118485  0.5406439707017661
  0.5386676167883225  0.5390715640118485  0.5406439707017661
  0.2538631220908312  0.2537706783028910  0.2544608703861170
  0.7538631220908312  0.2537706783028910  0.2544608703861170
  0.2538631220908312  0.7537706783028910  0.2544608703861170
  0.7538631220908312  0.7537706783028910  0.2544608703861170
  0.2538631220908312  0.2537706783028910  0.7544608703861170
  0.7538631220908312  0.2537706783028910  0.7544608703861170
  0.2538631220908312  0.7537706783028910  0.7544608703861170
  0.7538631220908312  0.7537706783028910  0.7544608703861170
  0.2070419457119745  0.2821865437057267  0.0031802569013844
  0.7070419457119745  0.2821865437057267  0.0031802569013844
  0.2070419457119745  0.7821865437057267  0.0031802569013844
  0.7070419457119745  0.7821865437057267  0.0031802569013844
  0.2070419457119745  0.2821865437057267  0.5031802569013843
  0.7070419457119745  0.2821865437057267  0.5031802569013843
  0.2070419457119745  0.7821865437057267  0.5031802569013843
  0.7070419457119745  0.7821865437057267  0.5031802569013843
  0.2828009084289256  0.0023086801978320  0.2069707730884506
  0.7828009084289256  0.0023086801978320  0.2069707730884506
  0.2828009084289256  0.5023086801978320  0.2069707730884506
  0.7828009084289256  0.5023086801978320  0.2069707730884506
  0.2828009084289256  0.0023086801978320  0.7069707730884506
  0.7828009084289256  0.0023086801978320  0.7069707730884506
  0.2828009084289256  0.5023086801978320  0.7069707730884506
  0.7828009084289256  0.5023086801978320  0.7069707730884506
  0.0026209675149845  0.2078451756697031  0.2817636704659810
  0.5026209675149844  0.2078451756697031  0.2817636704659810
  0.0026209675149845  0.7078451756697031  0.2817636704659810
  0.5026209675149844  0.7078451756697031  0.2817636704659810
  0.0026209675149845  0.2078451756697031  0.7817636704659809
  0.5026209675149844  0.2078451756697031  0.7817636704659809
  0.0026209675149845  0.7078451756697031  0.7817636704659809
  0.5026209675149844  0.7078451756697031  0.7817636704659809
  0.1289693556062451  0.2874164694190537  0.0802867575604374
  0.6289693556062450  0.2874164694190537  0.0802867575604374
  0.1289693556062451  0.7874164694190537  0.0802867575604374
  0.6289693556062450  0.7874164694190537  0.0802867575604374
  0.1289693556062451  0.2874164694190537  0.5802867575604375
  0.6289693556062450  0.2874164694190537  0.5802867575604375
  0.1289693556062451  0.7874164694190537  0.5802867575604375
  0.6289693556062450  0.7874164694190537  0.5802867575604375
  0.3041854268751908  0.2864162372180544  0.0405071601549978
  0.8041854268751908  0.2864162372180544  0.0405071601549978
  0.3041854268751908  0.7864162372180543  0.0405071601549978
  0.8041854268751908  0.7864162372180543  0.0405071601549978
  0.3041854268751908  0.2864162372180544  0.5405071601549978
  0.8041854268751908  0.2864162372180544  0.5405071601549978
  0.3041854268751908  0.7864162372180543  0.5405071601549978
  0.8041854268751908  0.7864162372180543  0.5405071601549978
  0.1914892673475020  0.3651182226774329  0.4326861752626849
  0.6914892673475019  0.3651182226774329  0.4326861752626849
  0.1914892673475020  0.8651182226774330  0.4326861752626849
  0.6914892673475019  0.8651182226774330  0.4326861752626849
  0.1914892673475020  0.3651182226774329  0.9326861752626849
  0.6914892673475019  0.3651182226774329  0.9326861752626849
  0.1914892673475020  0.8651182226774330  0.9326861752626849
  0.6914892673475019  0.8651182226774330  0.9326861752626849
  0.2023060357468991  0.1889692312777080  0.4566068672221854
  0.7023060357468991  0.1889692312777080  0.4566068672221854
  0.2023060357468991  0.6889692312777079  0.4566068672221854
  0.7023060357468991  0.6889692312777079  0.4566068672221854
  0.2023060357468991  0.1889692312777080  0.9566068672221855
  0.7023060357468991  0.1889692312777080  0.9566068672221855
  0.2023060357468991  0.6889692312777079  0.9566068672221855
  0.7023060357468991  0.6889692312777079  0.9566068672221855
  0.2887339086596469  0.0400449593544046  0.3039856894628845
  0.7887339086596469  0.0400449593544046  0.3039856894628845
  0.2887339086596469  0.5400449593544046  0.3039856894628845
  0.7887339086596469  0.5400449593544046  0.3039856894628845
  0.2887339086596469  0.0400449593544046  0.8039856894628845
  0.7887339086596469  0.0400449593544046  0.8039856894628845
  0.2887339086596469  0.5400449593544046  0.8039856894628845
  0.7887339086596469  0.5400449593544046  0.8039856894628845
  0.2866518759197421  0.0790551661639886  0.1284768395204113
  0.7866518759197421  0.0790551661639886  0.1284768395204113
  0.2866518759197421  0.5790551661639886  0.1284768395204113
  0.7866518759197421  0.5790551661639886  0.1284768395204113
  0.2866518759197421  0.0790551661639886  0.6284768395204113
  0.7866518759197421  0.0790551661639886  0.6284768395204113
  0.2866518759197421  0.5790551661639886  0.6284768395204113
  0.7866518759197421  0.5790551661639886  0.6284768395204113
  0.1895598333942125  0.4560227008654528  0.2039633112641094
  0.6895598333942126  0.4560227008654528  0.2039633112641094
  0.1895598333942125  0.9560227008654528  0.2039633112641094
  0.6895598333942126  0.9560227008654528  0.2039633112641094
  0.1895598333942125  0.4560227008654528  0.7039633112641094
  0.6895598333942126  0.4560227008654528  0.7039633112641094
  0.1895598333942125  0.9560227008654528  0.7039633112641094
  0.6895598333942126  0.9560227008654528  0.7039633112641094
  0.3652095414712065  0.4313689109577933  0.1903741922692175
  0.8652095414712065  0.4313689109577933  0.1903741922692175
  0.3652095414712065  0.9313689109577934  0.1903741922692175
  0.8652095414712065  0.9313689109577934  0.1903741922692175
  0.3652095414712065  0.4313689109577933  0.6903741922692175
  0.8652095414712065  0.4313689109577933  0.6903741922692175
  0.3652095414712065  0.9313689109577934  0.6903741922692175
  0.8652095414712065  0.9313689109577934  0.6903741922692175
  0.0791135543681209  0.1289359260231218  0.2842037766718857
  0.5791135543681208  0.1289359260231218  0.2842037766718857
  0.0791135543681209  0.6289359260231218  0.2842037766718857
  0.5791135543681208  0.6289359260231218  0.2842037766718857
  0.0791135543681209  0.1289359260231218  0.7842037766718857
  0.5791135543681208  0.1289359260231218  0.7842037766718857
  0.0791135543681209  0.6289359260231218  0.7842037766718857
  0.5791135543681208  0.6289359260231218  0.7842037766718857
  0.4321593224160100  0.1903711529954546  0.3643272089491330
  0.9321593224160100  0.1903711529954546  0.3643272089491330
  0.4321593224160100  0.6903711529954546  0.3643272089491330
  0.9321593224160100  0.6903711529954546  0.3643272089491330
  0.4321593224160100  0.1903711529954546  0.8643272089491330
  0.9321593224160100  0.1903711529954546  0.8643272089491330
  0.4321593224160100  0.6903711529954546  0.8643272089491330
  0.9321593224160100  0.6903711529954546  0.8643272089491330
  0.4560752342919934  0.2066738332397071  0.1882634385432589
  0.9560752342919934  0.2066738332397071  0.1882634385432589
  0.4560752342919934  0.7066738332397071  0.1882634385432589
  0.9560752342919934  0.7066738332397071  0.1882634385432589
  0.4560752342919934  0.2066738332397071  0.6882634385432589
  0.9560752342919934  0.2066738332397071  0.6882634385432589
  0.4560752342919934  0.7066738332397071  0.6882634385432589
  0.9560752342919934  0.7066738332397071  0.6882634385432589
  0.0405520833681926  0.3044245479198340  0.2892990415750988
  0.5405520833681926  0.3044245479198340  0.2892990415750988
  0.0405520833681926  0.8044245479198340  0.2892990415750988
  0.5405520833681926  0.8044245479198340  0.2892990415750988
  0.0405520833681926  0.3044245479198340  0.7892990415750989
  0.5405520833681926  0.3044245479198340  0.7892990415750989
  0.0405520833681926  0.8044245479198340  0.7892990415750989
  0.5405520833681926  0.8044245479198340  0.7892990415750989