ISIF 4 calc                             
   1.00332652530206     
    11.1502193134934906    0.0000000000000000    0.0000000000000000
     0.0000000000000000    7.9503282667545125    0.0000000000000000
     0.0000000000000000    0.0000000000000000    8.0146964328153345
   K    Sr   B    H 
     4     4    12    48
Direct
  0.2697495049585018  0.4941315593735638  0.9744843647791025
  0.7697494749584992  0.5058684406264362  0.0255156352208975
  0.2697495049585018  0.0058684406264362  0.4744843647791026
  0.7697494749584992  0.9941315593735638  0.5255156352208975
  0.4989609137831675  0.5054363092199006  0.5331211095657818
  0.9989609137831603  0.4945636907800994  0.4668788904342110
  0.4989609137831675  0.9945636907800994  0.0331211095657890
  0.9989609137831603  0.0054363092199006  0.9668788904342182
  0.2372172189666397  0.9035763314695645  0.0604010208813549
  0.7372172339666374  0.0964236685304283  0.9395989791186451
  0.2372172189666397  0.5964236685304355  0.5604010208813549
  0.7372172339666374  0.4035763314695717  0.4395989791186451
  0.5436016579141491  0.8314605384661803  0.3507136459379224
  0.0436016579141491  0.1685394615338196  0.6492863240620750
  0.5436016579141491  0.6685394615338197  0.8507136759379250
  0.0436016579141491  0.3314605384661804  0.1492863540620775
  0.4371158146592309  0.2138571768755923  0.7513338644776119
  0.9371158146592310  0.7861428081244100  0.2486661355223881
  0.4371158146592309  0.2861428081244029  0.2513338644776120
  0.9371158146592310  0.7138571918755900  0.7486661355223881
  0.1806797414310973  0.9947100379627537  0.1560952077984842
  0.6806797264310924  0.0052899620372463  0.8439048072015205
  0.1806797414310973  0.5052899620372463  0.6560951927984795
  0.6806797264310924  0.4947100379627537  0.3439048072015206
  0.2775890693947612  0.9900942037761433  0.9464861214768531
  0.7775890543947636  0.0099057962238566  0.0535138745231467
  0.2775890693947612  0.5099057962238567  0.4464861254768533
  0.7775890543947636  0.4900942037761433  0.5535138745231466
  0.1696091053451546  0.7980394424139664  1.0004276356654183
  0.6696090903451568  0.2019605575860336 -0.0004276266654210
  0.1696091053451546  0.7019605575860336  0.5004276266654210
  0.6696090903451568  0.2980394424139664  0.4995723733345790
  0.3156609245117255  0.8302038518688556  0.1395971790312593
  0.8156609545117280  0.1697961481311445  0.8604028209687408
  0.3156609245117255  0.6697961481311444  0.6395971790312592
  0.8156609545117280  0.3302038518688555  0.3604028209687407
  0.5731363660976730  0.8033447362200041  0.4953555699265745
  0.0731363660976730  0.1966552637799958  0.5046444300734326
  0.5731363660976730  0.6966552637799959  0.9953555699265674
  0.0731363660976730  0.3033447362200042  0.0046444300734255
  0.6335978276535551  0.8422359456868750  0.2625997384973939
  0.1335978276535552  0.1577640543131250  0.7374002465026084
  0.6335978276535551  0.6577640543131250  0.7625997534973916
  0.1335978276535552  0.3422359456868750  0.2374002465026084
  0.4897792332216475  0.9658708709109474  0.3500290250838169
  0.9897792332216475  0.0341291290890526  0.6499709449161806
  0.4897792332216475  0.5341291290890526  0.8500290550838194
  0.9897792332216475  0.4658708709109474  0.1499709749161831
  0.4785909084053741  0.7202761057538025  0.2945690600624200
  0.9785908784053715  0.2797238942461975  0.7054309399375801
  0.4785909084053741  0.7797238942461975  0.7945690600624199
  0.9785908784053715  0.2202761057538025  0.2054309399375801
  0.4317792650349666  0.2517111281315020  0.8994917744229295
  0.9317792650349666  0.7482888718684981  0.1005082255770705
  0.4317792650349666  0.2482888718684980  0.3994917744229295
  0.9317792650349666  0.7517111281315019  0.6005082255770705
  0.3572196279267685  0.2904843278836278  0.6778845130428988
  0.8572195979267659  0.7095156421163696  0.3221154869571012
  0.3572196279267685  0.2095156721163651  0.1778845130428988
  0.8572195979267659  0.7904843578836304  0.8221154869571012
  0.4226999833408375  0.0616124534124394  0.7327795867234809
  0.9226999833408304  0.9383875325875595  0.2672204132765192
  0.4226999833408375  0.4383875325875665  0.2327795867234808
  0.9226999833408304  0.5616124674124405  0.7672204132765191
  0.5375228763547475  0.2496196122018317  0.7001856870773542
  0.0375228763547546  0.7503804177981708  0.2998143129226457
  0.5375228763547475  0.2503803877981683  0.2001856870773543
  0.0375228763547546  0.7496195822018292  0.7998143129226458
 
  0.00000000E+00  0.00000000E+00  0.00000000E+00
  0.00000000E+00  0.00000000E+00  0.00000000E+00
  0.00000000E+00  0.00000000E+00  0.00000000E+00
  0.00000000E+00  0.00000000E+00  0.00000000E+00
  0.00000000E+00  0.00000000E+00  0.00000000E+00
  0.00000000E+00  0.00000000E+00  0.00000000E+00
  0.00000000E+00  0.00000000E+00  0.00000000E+00
  0.00000000E+00  0.00000000E+00  0.00000000E+00
  0.00000000E+00  0.00000000E+00  0.00000000E+00
  0.00000000E+00  0.00000000E+00  0.00000000E+00
  0.00000000E+00  0.00000000E+00  0.00000000E+00
  0.00000000E+00  0.00000000E+00  0.00000000E+00
  0.00000000E+00  0.00000000E+00  0.00000000E+00
  0.00000000E+00  0.00000000E+00  0.00000000E+00
  0.00000000E+00  0.00000000E+00  0.00000000E+00
  0.00000000E+00  0.00000000E+00  0.00000000E+00
  0.00000000E+00  0.00000000E+00  0.00000000E+00
  0.00000000E+00  0.00000000E+00  0.00000000E+00
  0.00000000E+00  0.00000000E+00  0.00000000E+00
  0.00000000E+00  0.00000000E+00  0.00000000E+00
  0.00000000E+00  0.00000000E+00  0.00000000E+00
  0.00000000E+00  0.00000000E+00  0.00000000E+00
  0.00000000E+00  0.00000000E+00  0.00000000E+00
  0.00000000E+00  0.00000000E+00  0.00000000E+00
  0.00000000E+00  0.00000000E+00  0.00000000E+00
  0.00000000E+00  0.00000000E+00  0.00000000E+00
  0.00000000E+00  0.00000000E+00  0.00000000E+00
  0.00000000E+00  0.00000000E+00  0.00000000E+00
  0.00000000E+00  0.00000000E+00  0.00000000E+00
  0.00000000E+00  0.00000000E+00  0.00000000E+00
  0.00000000E+00  0.00000000E+00  0.00000000E+00
  0.00000000E+00  0.00000000E+00  0.00000000E+00
  0.00000000E+00  0.00000000E+00  0.00000000E+00
  0.00000000E+00  0.00000000E+00  0.00000000E+00
  0.00000000E+00  0.00000000E+00  0.00000000E+00
  0.00000000E+00  0.00000000E+00  0.00000000E+00
  0.00000000E+00  0.00000000E+00  0.00000000E+00
  0.00000000E+00  0.00000000E+00  0.00000000E+00
  0.00000000E+00  0.00000000E+00  0.00000000E+00
  0.00000000E+00  0.00000000E+00  0.00000000E+00
  0.00000000E+00  0.00000000E+00  0.00000000E+00
  0.00000000E+00  0.00000000E+00  0.00000000E+00
  0.00000000E+00  0.00000000E+00  0.00000000E+00
  0.00000000E+00  0.00000000E+00  0.00000000E+00
  0.00000000E+00  0.00000000E+00  0.00000000E+00
  0.00000000E+00  0.00000000E+00  0.00000000E+00
  0.00000000E+00  0.00000000E+00  0.00000000E+00
  0.00000000E+00  0.00000000E+00  0.00000000E+00
  0.00000000E+00  0.00000000E+00  0.00000000E+00
  0.00000000E+00  0.00000000E+00  0.00000000E+00
  0.00000000E+00  0.00000000E+00  0.00000000E+00
  0.00000000E+00  0.00000000E+00  0.00000000E+00
  0.00000000E+00  0.00000000E+00  0.00000000E+00
  0.00000000E+00  0.00000000E+00  0.00000000E+00
  0.00000000E+00  0.00000000E+00  0.00000000E+00
  0.00000000E+00  0.00000000E+00  0.00000000E+00
  0.00000000E+00  0.00000000E+00  0.00000000E+00
  0.00000000E+00  0.00000000E+00  0.00000000E+00
  0.00000000E+00  0.00000000E+00  0.00000000E+00
  0.00000000E+00  0.00000000E+00  0.00000000E+00
  0.00000000E+00  0.00000000E+00  0.00000000E+00
  0.00000000E+00  0.00000000E+00  0.00000000E+00
  0.00000000E+00  0.00000000E+00  0.00000000E+00
  0.00000000E+00  0.00000000E+00  0.00000000E+00
  0.00000000E+00  0.00000000E+00  0.00000000E+00
  0.00000000E+00  0.00000000E+00  0.00000000E+00
  0.00000000E+00  0.00000000E+00  0.00000000E+00
  0.00000000E+00  0.00000000E+00  0.00000000E+00
