CuZnSnS (CZTS)                          
  0.990000000000000     
     5.3589720185947067   -0.0012192835108329   -0.0026943478767950
     0.0016040249046138    5.3590791838144085   -0.0020718822016488
    -2.6771514960442202   -2.6760768231159093    5.4193740583850829
   Cu   Zn   Sn   S 
     2     1     1     4
Direct
  0.9982304099999968  0.9982477100000011  0.0002051600000002
  0.2481739899999957  0.7481627599999996  0.4999720599999975
  0.7481827399999972  0.2481094899999974  0.4999292800000035
  0.4980734700000018  0.4980555400000028  0.9998174099999986
  0.8976068289920608  0.3678726802572760  0.2602279119563363
  0.6286529297427419  0.6373682770357157  0.7396912080436355
  0.1075350883009214  0.0986981810079228  0.7397400080436374
  0.3591054529642670  0.8887575816990823  0.2602136219563335
 
  0.00000000E+00  0.00000000E+00  0.00000000E+00
  0.00000000E+00  0.00000000E+00  0.00000000E+00
  0.00000000E+00  0.00000000E+00  0.00000000E+00
  0.00000000E+00  0.00000000E+00  0.00000000E+00
  0.00000000E+00  0.00000000E+00  0.00000000E+00
  0.00000000E+00  0.00000000E+00  0.00000000E+00
  0.00000000E+00  0.00000000E+00  0.00000000E+00
  0.00000000E+00  0.00000000E+00  0.00000000E+00
