MA-Pb-I                                 
1.0
        6.4145741463         0.0000000000         0.0000000000
        0.0015735581         6.3533442456         0.0000000000
        0.1425278209        -0.0003729378         6.5000106362
    C    N    H   Pb    I
    1    1    6    1    3
Direct
     0.398176819         0.499863595         0.474111974
     0.618923187         0.499945909         0.536094189
     0.392772287         0.499657422         0.305278391
     0.321697325         0.641865849         0.536216140
     0.321775794         0.358002633         0.536529601
     0.698451936         0.633207023         0.481728315
     0.698555350         0.366636723         0.481857330
     0.635833919         0.500034988         0.695723355
     0.935619950         0.000007101         0.975364864
     0.895143747         0.000009388         0.467947870
     0.886720002         0.499983490         0.009109620
     0.412108570         0.999968469         0.927172422
