ISIF 4 calc                             
   1.00988847442801     
     5.5276852558894092   -0.0000000000214864   -0.0000000000000000
    -2.7638426279093635    4.7871158557284028    0.0000000000000000
     0.0000000000000000    0.0000000000000000   13.5031138385013900
   Cs   Sr   B 
     6     6    18
Direct
 -0.0000000000000000  0.0000000000000000  0.2458798604195582
 -0.0000000000000000  0.0000000000000000  0.7458798768873456
  0.6666665523883992  0.3333331301378593  0.5792136892205113
  0.6666665523883992  0.3333331301378593  0.0792136727527311
  0.3333331301313578  0.6666662602757256  0.9125467912878185
  0.3333331301313578  0.6666662602757256  0.4125467748200385
 -0.0000000000000000  0.0000000000000000  0.9960345781707585
 -0.0000000000000000  0.0000000000000000  0.4960345946385451
  0.6666665523883992  0.3333331301378593  0.3293676802380651
  0.6666665523883992  0.3333331301378593  0.8293676967058528
  0.3333331301313578  0.6666662602757256  0.6627015090390185
  0.3333331301313578  0.6666662602757256  0.1627014925712380
  0.1387762510346948  0.3333052199297664  0.0791618619732751
  0.6666946503055540  0.8054700702217293  0.0791618619732751
  0.1945284890538174  0.8612234906756672  0.0791618619732751
  0.6666950016032116  0.8612234906756743  0.5791618784410614
  0.1945289688883433  0.3333052199297664  0.5791618784410614
  0.1387754199025112  0.8054700702217293  0.5791618784410614
  0.8054428034230935  0.6666383500676334  0.4124949640405819
  0.3333615201741968  0.1388038099460035  0.4124949640405819
  0.8611953335679071  0.1945572303999411  0.4124949640405819
  0.3333618714718544  0.1945572303999482  0.9124949805083685
  0.8611955212767494  0.6666383500676334  0.9124949805083685
  0.8054422644166007  0.1388038099460035  0.9124949805083685
  0.4721096732917431 -0.0000279102080927  0.7458287928415342
  1.0000280725625956  0.4721369400838699  0.7458287928415342
  0.5278619113108657  0.5278903605378008  0.7458287928415342
  1.0000284238602533  0.5278903605378079  0.2458287763737549
  0.5278623911453916 -0.0000279102080927  0.2458287763737549
  0.4721088421595525  0.4721369400838699  0.2458287763737549
 
  0.00000000E+00  0.00000000E+00  0.00000000E+00
  0.00000000E+00  0.00000000E+00  0.00000000E+00
  0.00000000E+00  0.00000000E+00  0.00000000E+00
  0.00000000E+00  0.00000000E+00  0.00000000E+00
  0.00000000E+00  0.00000000E+00  0.00000000E+00
  0.00000000E+00  0.00000000E+00  0.00000000E+00
  0.00000000E+00  0.00000000E+00  0.00000000E+00
  0.00000000E+00  0.00000000E+00  0.00000000E+00
  0.00000000E+00  0.00000000E+00  0.00000000E+00
  0.00000000E+00  0.00000000E+00  0.00000000E+00
  0.00000000E+00  0.00000000E+00  0.00000000E+00
  0.00000000E+00  0.00000000E+00  0.00000000E+00
  0.00000000E+00  0.00000000E+00  0.00000000E+00
  0.00000000E+00  0.00000000E+00  0.00000000E+00
  0.00000000E+00  0.00000000E+00  0.00000000E+00
  0.00000000E+00  0.00000000E+00  0.00000000E+00
  0.00000000E+00  0.00000000E+00  0.00000000E+00
  0.00000000E+00  0.00000000E+00  0.00000000E+00
  0.00000000E+00  0.00000000E+00  0.00000000E+00
  0.00000000E+00  0.00000000E+00  0.00000000E+00
  0.00000000E+00  0.00000000E+00  0.00000000E+00
  0.00000000E+00  0.00000000E+00  0.00000000E+00
  0.00000000E+00  0.00000000E+00  0.00000000E+00
  0.00000000E+00  0.00000000E+00  0.00000000E+00
  0.00000000E+00  0.00000000E+00  0.00000000E+00
  0.00000000E+00  0.00000000E+00  0.00000000E+00
  0.00000000E+00  0.00000000E+00  0.00000000E+00
  0.00000000E+00  0.00000000E+00  0.00000000E+00
  0.00000000E+00  0.00000000E+00  0.00000000E+00
  0.00000000E+00  0.00000000E+00  0.00000000E+00
